6453
1 0 0 1 1 1 0 0 1 1 0 0 0 1 0 1 0 0 0 0 
0 0 0 0 0 0 0 15 15 15 15 15 15 15 15 3 3 3 3 3 3 4 4 4 4 4 4 4 4 5 5 5 5 5 5 5 5 5 0 0 3 3 4 3 15 5 13 3 15 5 8 13 8 13 13 0 5 15 9 9 3 9 15 8 13 13 8 8 9 9 15 3 13 8 8 8 8 13 9 13 
